000 000 -99 000 -99 000 -99 -99 -99 -99 -99 -99 -99 000 000 -99 -99 -99 -99 000 000 000 -99 000 000 000 000 -99 -99 -99 -99
000 000 000 000 000 000 000 -99 -99 -99 -99 -99 -99 000 000 000 -99 -99 -99 -99 -99 000 000 000 000 000 000 -99 -99 -99 -99
000 000 000 000 000 000 000 000 -99 -99 -99 -99 -99 -99 000 000 000 -99 -99 -99 -99 000 000 001 000 000 000 000 -99 -99 -99
000 000 000 000 000 000 000 000 000 -99 -99 -99 -99 -99 000 000 -99 -99 -99 000 000 000 000 001 002 000 000 000 -99 -99 -99
000 000 000 000 000 000 000 000 000 000 -99 -99 000 000 000 000 -99 -99 -99 -99 000 000 000 000 022 007 000 -99 -99 -99 -99
000 000 000 000 000 000 000 000 000 000 -99 000 000 -99 000 000 -99 -99 -99 -99 000 000 000 000 011 029 -99 -99 -99 -99 -99
000 000 000 000 000 -99 000 000 000 -99 -99 000 000 000 000 000 000 000 -99 -99 000 000 000 000 001 044 -99 -99 -99 -99 -99
000 000 000 000 000 -99 -99 -99 000 000 -99 -99 -99 000 000 -99 000 000 000 -99 000 000 000 000 001 078 -99 -99 -99 -99 -99
000 000 000 000 -99 -99 -99 -99 000 000 000 000 -99 -99 -99 -99 000 000 000 -99 000 -99 -99 000 003 -99 -99 -99 -99 -99 -99
000 000 000 000 000 000 -99 000 000 000 000 000 -99 -99 000 000 000 000 000 000 -99 -99 -99 000 000 -99 -99 -99 000 000 -99
000 000 000 000 000 000 000 000 000 000 000 000 000 000 -99 000 000 000 000 -99 -99 -99 -99 000 -99 -99 -99 -99 000 000 -99
000 000 000 000 000 000 000 000 000 000 000 000 -99 -99 -99 000 000 000 000 -99 -99 -99 -99 000 000 -99 000 -99 000 000 000
000 000 000 000 000 000 000 000 -99 -99 000 000 -99 -99 -99 000 000 -99 000 000 -99 -99 -99 -99 000 -99 000 000 000 000 000
000 000 000 000 000 000 000 000 -99 -99 000 000 000 -99 -99 -99 000 -99 000 000 -99 -99 -99 000 000 000 000 000 000 000 -99
000 000 000 000 000 000 000 -99 -99 -99 -99 000 000 -99 -99 000 000 -99 000 -99 -99 -99 -99 000 000 000 000 000 000 000 -99
000 -99 -99 000 000 000 000 000 -99 -99 -99 -99 -99 -99 -99 000 000 000 000 -99 -99 -99 -99 -99 000 000 000 000 000 000 -99
000 -99 -99 -99 -99 -99 000 000 000 -99 -99 -99 -99 000 000 000 000 000 000 -99 -99 -99 -99 -99 000 000 000 -99 000 001 -99
000 000 000 -99 -99 -99 000 000 000 -99 -99 -99 -99 000 000 000 000 000 000 -99 -99 -99 -99 -99 -99 -99 -99 -99 000 002 000
000 000 000 000 -99 -99 -99 000 000 -99 -99 -99 -99 000 000 000 000 000 000 -99 -99 -99 -99 -99 -99 -99 000 -99 001 003 000
000 000 000 000 000 -99 -99 000 000 000 000 -99 -99 -99 000 000 000 000 000 000 -99 -99 000 -99 -99 -99 -99 -99 007 002 -99
000 000 000 000 000 000 -99 -99 000 000 -99 -99 -99 -99 -99 000 000 000 000 000 000 000 000 -99 -99 -99 -99 -99 -99 -99 -99
000 000 000 000 000 000 -99 000 000 000 -99 -99 -99 -99 -99 000 000 000 000 000 000 000 000 -99 -99 -99 -99 -99 -99 -99 -99
000 000 000 000 000 000 000 000 000 000 -99 -99 -99 000 000 000 000 000 000 000 000 000 000 -99 -99 -99 -99 -99 -99 -99 -99
000 000 000 000 000 000 000 000 000 -99 -99 -99 -99 000 000 000 000 000 -99 000 000 000 000 -99 -99 -99 -99 -99 -99 -99 -99
000 000 000 000 000 000 000 000 000 -99 -99 -99 -99 000 000 000 000 000 000 000 000 000 000 -99 -99 -99 -99 -99 -99 -99 -99
000 000 000 000 000 000 000 000 000 -99 -99 -99 -99 000 000 000 000 000 000 000 000 000 -99 -99 -99 -99 -99 -99 -99 -99 -99
000 000 000 000 000 000 000 -99 000 000 000 -99 -99 000 000 -99 000 000 000 000 000 000 000 -99 -99 -99 -99 -99 -99 -99 -99
000 000 000 000 000 000 000 000 000 000 000 -99 -99 000 000 000 000 000 000 000 000 000 000 -99 -99 -99 -99 -99 -99 -99 -99
000 000 000 000 000 000 000 000 000 000 000 -99 -99 -99 000 000 -99 000 000 000 000 000 -99 -99 -99 -99 -99 -99 -99 -99 -99
000 000 000 000 -99 -99 000 000 000 000 000 -99 -99 000 000 000 000 000 000 000 000 000 -99 -99 -99 -99 -99 -99 -99 -99 -99
000 000 000 000 000 -99 000 000 000 000 000 -99 -99 000 000 000 000 000 000 000 000 000 -99 -99 -99 -99 -99 -99 -99 -99 -99
000 000 000 000 000 000 000 000 000 000 000 -99 -99 000 000 000 000 000 000 -99 -99 -99 000 000 -99 -99 -99 -99 -99 -99 -99
000 000 000 000 000 000 000 000 000 000 000 -99 -99 000 000 000 000 000 000 -99 -99 -99 000 000 000 -99 -99 000 -99 -99 -99
000 000 000 000 000 000 000 000 000 -99 -99 -99 -99 000 000 000 000 000 -99 -99 -99 -99 000 000 000 000 -99 000 000 -99 -99
000 000 000 000 000 000 000 000 000 000 -99 -99 -99 -99 000 000 000 000 -99 000 000 000 000 000 000 000 000 000 000 -99 -99
000 000 -99 000 000 -99 -99 000 000 000 000 -99 000 000 000 000 000 000 000 000 000 000 000 -99 000 000 000 000 000 000 -99
000 000 -99 000 000 -99 -99 000 000 000 000 -99 000 000 000 000 000 000 000 000 000 000 -99 -99 000 000 000 000 000 -99 -99
000 000 000 000 000 -99 -99 -99 000 000 -99 -99 000 000 000 000 000 000 000 -99 000 -99 -99 000 000 000 000 000 000 000 -99
010 000 000 -99 -99 -99 -99 -99 -99 000 -99 -99 000 000 000 000 000 000 -99 -99 000 -99 -99 000 000 000 000 000 -99 -99 -99
004 000 000 -99 -99 -99 -99 -99 -99 -99 -99 000 000 000 000 000 000 000 -99 -99 -99 -99 000 000 000 000 -99 -99 -99 000 000
000 -99 000 000 000 -99 -99 -99 -99 -99 000 000 000 000 000 000 000 000 -99 -99 -99 -99 000 000 000 000 000 000 000 000 000
000 -99 -99 000 -99 -99 -99 -99 -99 -99 000 000 000 000 -99 000 000 000 -99 -99 -99 -99 000 000 000 000 000 000 000 000 000
-99 -99 -99 -99 -99 000 -99 -99 -99 000 000 000 000 000 000 000 000 -99 000 000 000 000 000 000 000 000 000 000 000 -99 000
-99 -99 -99 -99 -99 000 000 -99 -99 -99 -99 000 000 000 000 000 000 000 000 000 000 000 000 000 000 000 000 000 000 -99 000
000 -99 -99 -99 -99 000 -99 -99 -99 -99 -99 000 000 000 000 000 000 000 000 000 000 000 000 000 000 000 000 001 001 -99 -99
000 -99 -99 -99 -99 -99 -99 -99 -99 -99 -99 000 000 000 000 -99 000 000 000 000 000 000 000 000 001 000 000 001 001 -99 -99
000 -99 -99 -99 -99 -99 -99 -99 -99 000 -99 -99 000 000 000 -99 -99 000 000 000 000 000 000 001 001 000 000 001 -99 -99 -99
-99 -99 -99 -99 -99 -99 -99 -99 -99 000 -99 000 000 000 000 -99 -99 000 000 000 000 000 000 001 000 000 000 -99 000 000 -99
-99 -99 -99 -99 -99 -99 -99 -99 -99 -99 -99 000 000 000 -99 -99 000 000 000 000 000 000 000 000 000 000 000 -99 000 -99 -99
-99 -99 -99 -99 -99 -99 -99 -99 -99 -99 -99 000 000 000 -99 -99 000 000 000 000 000 000 000 000 000 000 000 -99 -99 -99 -99
-99 -99 -99 -99 -99 -99 -99 -99 000 -99 -99 -99 -99 -99 -99 000 000 000 000 000 000 000 000 -99 000 000 000 000 -99 -99 -99
-99 -99 -99 -99 -99 -99 -99 -99 000 -99 -99 -99 -99 -99 -99 -99 000 000 000 000 000 000 -99 -99 000 000 000 000 000 -99 -99
-99 -99 -99 -99 -99 -99 -99 -99 -99 -99 -99 -99 -99 -99 -99 -99 000 000 000 001 000 000 -99 -99 000 000 000 000 000 -99 -99
-99 -99 -99 -99 -99 -99 -99 -99 -99 -99 -99 -99 -99 -99 -99 000 000 000 000 000 000 000 -99 -99 -99 000 000 000 000 -99 -99
-99 -99 -99 -99 -99 -99 -99 -99 -99 -99 -99 -99 -99 -99 -99 000 000 000 000 000 001 000 -99 -99 -99 000 001 000 -99 -99 -99
